 18 50 0 1 2 3 4 5 6 7 8 9 10 11 12 13 14 15 16 17 18 19 20 21 22 23 24 25 26 27 28 29 30 31 32 33 34 35 36 37 38 39 40 41 42 43 44 45 46 47 48 49 
 31
 0 1 3 4 5 8 10 14 15 16 18 19 21 23 24 25 26 29 30 32 35 36 37 38 39 41 42 44 45 47 48
 29
 0 1 3 4 5 9 11 12 14 15 18 19 23 24 25 26 30 32 34 35 37 38 39 41 42 44 45 48 49
 28
 0 1 3 5 6 9 13 14 15 16 18 20 23 24 25 26 29 30 32 33 35 37 38 39 41 44 45 48
 32
 0 1 3 5 8 10 14 15 18 19 21 23 24 25 26 29 30 32 33 34 35 36 37 38 39 40 41 42 44 45 47 48
 30
 0 1 3 5 9 11 14 15 16 17 18 19 21 24 25 26 29 30 32 34 35 36 37 38 39 41 42 44 45 48
 26
 0 1 3 14 15 16 18 19 20 23 24 26 29 30 31 32 34 35 37 38 39 41 42 43 44 45
 22
 1 2 3 7 9 15 18 19 23 24 26 29 32 34 35 37 38 39 41 42 44 45
 21
 1 2 3 7 9 15 18 19 23 24 26 32 34 35 37 38 39 41 42 44 45
 30
 1 3 4 7 10 14 15 18 19 21 22 23 24 25 26 29 30 32 33 35 36 37 38 39 40 41 42 44 45 47
 32
 1 3 5 8 9 14 15 16 18 19 21 23 24 25 26 27 29 30 32 33 34 35 36 37 38 39 40 41 42 44 45 48
 30
 1 3 5 10 11 14 15 16 18 19 21 24 25 26 29 30 32 33 34 35 36 37 38 39 41 42 43 44 45 48
 32
 1 3 5 10 12 14 15 16 17 18 19 21 23 24 25 26 28 29 30 32 34 35 36 37 38 39 41 42 44 45 48 49
 28
 1 3 5 14 15 16 18 19 20 23 24 25 26 29 30 31 32 33 34 35 37 38 39 41 42 43 44 45
 32
 1 3 5 14 15 18 19 20 21 22 23 24 25 26 27 28 29 30 32 34 35 36 37 38 39 40 41 42 44 45 46 48
 32
 1 3 5 14 15 18 19 20 22 23 24 25 26 27 28 29 30 32 33 34 35 36 37 38 39 40 41 42 44 45 46 48
 31
 1 3 10 12 14 15 18 19 22 23 24 25 26 28 29 30 32 33 34 35 36 37 38 39 40 41 42 44 45 46 49
 25
 1 3 14 15 17 18 19 20 23 24 26 29 30 31 32 33 34 35 37 38 39 41 42 44 45
 19
 3 6 7 9 13 14 15 23 24 25 26 28 29 30 32 37 38 39 45
